language ESSENCE' 1.0

letting jobs = 102
letting horizon = 798
letting resourcesRenew = 2
letting resourcesNonrenew = 2
letting resourceLimits = [51, 48, 604, 572]
letting successors = [[2, 3, 4, 5, 6, 7, 8, 10, 11, 12, 14, 15, 16, 17, 18, 19, 20, 22, 23, 24, 27, 32, 36, 39, 45, 46], [85, 84, 70, 59, 54, 53, 52, 50, 35, 28, 26, 13], [100, 94, 70, 58, 53, 48, 37, 35, 26, 9], [101, 100, 94, 85, 84, 70, 69, 68, 58, 56, 53, 52, 50, 49, 44, 37, 35, 28], [100, 98, 93, 67, 66, 62, 60, 54, 53, 52, 48, 43, 37, 34, 25], [101, 98, 84, 69, 66, 62, 60, 59, 56, 55, 50, 44, 37, 31, 29], [100, 97, 87, 86, 65, 62, 60, 59, 53, 50, 48, 47, 40, 38, 30], [98, 92, 91, 89, 87, 69, 64, 62, 60, 59, 58, 56, 51, 50, 48, 44, 43, 40], [98, 86, 84, 68, 65, 62, 56, 50, 28, 21], [101, 100, 86, 69, 65, 63, 57, 56, 54, 50, 41, 38], [95, 87, 86, 84, 81, 77, 76, 69, 68, 67, 65, 64, 63, 62, 61, 57, 38], [100, 94, 91, 85, 77, 68, 67, 66, 64, 63, 62, 61, 59, 53, 52, 42], [101, 94, 91, 87, 83, 81, 80, 78, 69, 68, 67, 63, 62, 58, 47, 42], [98, 93, 92, 91, 86, 66, 63, 62, 60, 59, 56, 53, 51, 43], [99, 98, 97, 95, 94, 92, 90, 88, 86, 83, 70, 66, 65, 62, 57, 50, 40], [97, 91, 90, 66, 58, 53, 50, 40, 33], [99, 96, 94, 90, 89, 88, 87, 83, 81, 80, 76, 67, 66, 63, 62, 61, 55, 49], [96, 93, 91, 90, 88, 87, 83, 77, 66, 64, 63, 62, 61, 57, 52, 43], [96, 93, 91, 90, 85, 79, 77, 70, 69, 68, 65, 63, 62, 61, 58, 57, 52], [100, 97, 95, 94, 93, 92, 91, 90, 84, 79, 77, 75, 70, 64, 62, 61, 58, 57], [95, 92, 91, 90, 87, 85, 83, 79, 77, 76, 69, 67, 64, 63, 61, 57, 52], [97, 94, 92, 91, 90, 89, 87, 83, 81, 78, 70, 67, 64, 56, 43], [99, 97, 96, 94, 93, 91, 90, 89, 88, 83, 80, 77, 74, 72, 66, 64, 61, 59], [97, 96, 93, 91, 88, 87, 85, 83, 80, 79, 76, 69, 67, 65, 50], [97, 95, 94, 92, 91, 90, 86, 85, 79, 78, 75, 68, 64, 58, 56], [96, 93, 92, 91, 90, 82, 80, 78, 77, 76, 71, 69, 68, 67, 65, 64, 63], [98, 95, 93, 92, 90, 89, 88, 86, 83, 82, 79, 76, 74, 69, 52], [97, 92, 90, 87, 81, 79, 77, 73, 72, 67, 63, 61, 57], [99, 94, 93, 92, 87, 81, 80, 79, 75, 74, 71, 64, 47], [94, 92, 90, 81, 79, 78, 76, 72, 67, 64, 63, 56], [97, 95, 94, 91, 90, 83, 82, 80, 79, 78, 74, 73, 70, 68, 63], [99, 96, 94, 93, 91, 83, 81, 79, 77, 74, 73, 71, 65, 63, 61], [100, 89, 86, 83, 79, 77, 76, 73, 71, 68, 65, 62, 61], [95, 89, 87, 74, 68, 64, 63, 50], [99, 98, 95, 93, 90, 89, 86, 83, 76, 72, 66, 65, 62], [96, 92, 89, 83, 81, 80, 79, 76, 72, 71, 64, 62], [96, 91, 90, 81, 77, 76, 75, 74, 72, 71, 64], [94, 93, 92, 91, 88, 85, 83, 79, 73, 72, 66], [98, 95, 91, 90, 89, 83, 79, 77, 76, 73, 62], [93, 85, 81, 79, 77, 76, 74, 72, 71, 61], [92, 90, 88, 83, 80, 76, 75, 72, 71, 62], [93, 92, 90, 86, 82, 76, 71, 65], [95, 79, 76, 74, 72, 71, 65], [90, 77, 74, 63, 61], [97, 94, 81, 79, 76, 73, 71], [92, 81, 79, 77, 76, 72, 71], [96, 95, 89, 77, 73, 72], [95, 83, 82, 76, 75, 72], [97, 93, 92, 74, 73, 72], [81, 77, 71, 61], [94, 77, 71, 61], [97, 81, 80, 78, 73], [89, 83, 81, 80, 73], [94, 83, 80, 72, 71], [91, 77, 71, 64], [96, 80, 77, 71], [89, 80, 78, 71], [88, 76, 73, 72], [81, 79, 75], [80, 79, 71], [82, 78], [74], [75], [73], [75], [71], [74], [72], [72], [76], [102], [102], [102], [102], [102], [102], [102], [102], [102], [102], [102], [102], [102], [102], [102], [102], [102], [102], [102], [102], [102], [102], [102], [102], [102], [102], [102], [102], [102], [102], [102], []]
letting durations = [[0], [3, 5, 8], [2, 4, 7], [2, 8, 9], [5, 9, 10], [2, 4, 7], [1, 6, 7], [1, 7, 9], [1, 5, 6], [1, 5, 7], [7, 8, 9], [2, 8, 9], [1, 5, 6], [3, 7, 8], [2, 5, 10], [5, 6, 9], [3, 4, 6], [4, 8, 10], [5, 9, 10], [1, 7, 8], [1, 2, 3], [1, 2, 8], [1, 2, 4], [6, 7, 8], [3, 4, 5], [1, 2, 10], [1, 7, 9], [1, 2, 9], [3, 7, 8], [2, 7, 9], [2, 3, 5], [1, 6, 10], [5, 6, 7], [6, 7, 10], [2, 3, 8], [2, 6, 9], [2, 4, 10], [2, 4, 5], [1, 5, 7], [3, 5, 10], [4, 8, 9], [3, 6, 8], [3, 8, 10], [4, 6, 7], [3, 4, 8], [4, 8, 9], [5, 6, 10], [3, 5, 8], [1, 4, 10], [4, 5, 9], [3, 4, 8], [3, 5, 9], [4, 6, 10], [6, 7, 10], [1, 4, 8], [1, 7, 9], [2, 7, 9], [1, 2, 9], [2, 7, 8], [7, 8, 9], [6, 7, 10], [3, 5, 6], [2, 9, 10], [1, 4, 5], [4, 8, 9], [1, 8, 9], [1, 6, 7], [4, 6, 7], [2, 9, 10], [4, 6, 8], [2, 6, 9], [4, 5, 6], [1, 5, 6], [7, 8, 9], [7, 8, 9], [2, 8, 9], [1, 3, 8], [4, 5, 9], [1, 8, 9], [5, 6, 7], [1, 4, 6], [4, 5, 10], [7, 8, 9], [1, 4, 8], [5, 6, 7], [2, 8, 10], [2, 3, 4], [3, 8, 9], [1, 3, 7], [4, 7, 10], [3, 5, 8], [3, 4, 5], [2, 4, 5], [8, 9, 10], [1, 3, 5], [4, 5, 6], [1, 3, 5], [6, 9, 10], [2, 3, 7], [3, 4, 6], [1, 2, 3], [0]]
letting resourceUsage = [[[0, 0, 0, 0]], [[3, 5, 9, 7], [1, 5, 5, 6], [1, 5, 3, 2]], [[4, 3, 5, 6], [4, 2, 4, 4], [3, 2, 2, 4]], [[5, 5, 9, 7], [3, 3, 8, 7], [1, 1, 6, 6]], [[2, 5, 8, 4], [2, 3, 6, 3], [2, 1, 5, 3]], [[2, 5, 8, 2], [2, 5, 8, 1], [2, 5, 6, 1]], [[4, 4, 6, 5], [3, 4, 6, 4], [2, 4, 6, 4]], [[5, 1, 9, 10], [4, 1, 8, 6], [3, 1, 8, 4]], [[5, 4, 3, 7], [3, 3, 3, 6], [3, 3, 1, 3]], [[4, 5, 7, 6], [4, 4, 6, 5], [3, 3, 5, 4]], [[5, 4, 8, 9], [4, 3, 7, 8], [3, 3, 6, 8]], [[3, 3, 5, 5], [3, 3, 3, 4], [2, 3, 3, 1]], [[4, 3, 7, 2], [4, 3, 7, 1], [4, 3, 6, 1]], [[2, 4, 9, 7], [2, 3, 9, 5], [2, 2, 9, 5]], [[3, 2, 10, 5], [2, 1, 10, 5], [1, 1, 10, 5]], [[5, 4, 3, 4], [2, 3, 2, 2], [2, 3, 2, 1]], [[3, 3, 9, 3], [3, 2, 6, 2], [2, 2, 5, 2]], [[3, 4, 8, 3], [3, 4, 4, 2], [3, 4, 2, 2]], [[4, 4, 5, 10], [3, 2, 3, 4], [2, 1, 3, 1]], [[4, 1, 8, 5], [2, 1, 7, 3], [1, 1, 4, 2]], [[2, 4, 9, 5], [2, 3, 8, 5], [1, 3, 6, 5]], [[5, 4, 10, 8], [4, 2, 9, 6], [4, 2, 7, 6]], [[3, 4, 8, 5], [3, 4, 7, 3], [2, 4, 5, 1]], [[4, 2, 10, 3], [3, 2, 9, 3], [2, 2, 9, 2]], [[5, 3, 8, 5], [3, 2, 8, 4], [3, 2, 8, 3]], [[3, 2, 8, 7], [3, 2, 8, 5], [2, 2, 5, 5]], [[5, 5, 6, 4], [4, 3, 5, 3], [2, 1, 5, 2]], [[5, 4, 6, 8], [5, 3, 5, 8], [5, 3, 5, 7]], [[5, 2, 6, 8], [4, 2, 6, 7], [3, 2, 5, 6]], [[4, 5, 10, 8], [2, 3, 10, 7], [2, 3, 10, 5]], [[3, 5, 7, 8], [2, 5, 6, 7], [2, 5, 5, 6]], [[5, 4, 5, 5], [5, 2, 4, 4], [5, 1, 3, 4]], [[1, 5, 6, 9], [1, 3, 4, 7], [1, 2, 3, 4]], [[5, 5, 6, 3], [5, 4, 4, 2], [5, 4, 4, 1]], [[3, 3, 7, 4], [2, 2, 6, 2], [2, 2, 5, 2]], [[2, 4, 8, 9], [1, 4, 6, 6], [1, 4, 3, 2]], [[2, 4, 6, 7], [2, 4, 4, 4], [1, 4, 3, 3]], [[3, 1, 2, 8], [3, 1, 2, 6], [1, 1, 1, 3]], [[4, 3, 7, 6], [4, 2, 3, 5], [3, 2, 2, 5]], [[4, 1, 6, 9], [2, 1, 5, 9], [2, 1, 5, 8]], [[4, 3, 5, 9], [3, 2, 5, 7], [3, 2, 3, 3]], [[5, 5, 2, 6], [4, 2, 1, 6], [4, 2, 1, 5]], [[1, 1, 7, 7], [1, 1, 5, 7], [1, 1, 5, 6]], [[2, 3, 3, 7], [2, 3, 3, 5], [2, 2, 3, 4]], [[4, 1, 10, 6], [4, 1, 9, 5], [4, 1, 9, 3]], [[4, 3, 9, 7], [2, 3, 7, 4], [2, 3, 6, 4]], [[2, 3, 7, 6], [1, 2, 4, 4], [1, 2, 3, 4]], [[4, 5, 9, 4], [3, 4, 5, 3], [2, 4, 3, 1]], [[5, 4, 5, 10], [4, 4, 3, 8], [2, 4, 2, 8]], [[2, 3, 5, 8], [2, 2, 2, 7], [2, 1, 2, 6]], [[4, 4, 5, 10], [2, 4, 4, 8], [2, 4, 3, 8]], [[5, 2, 6, 9], [3, 2, 5, 8], [1, 2, 3, 8]], [[5, 3, 8, 4], [4, 3, 8, 3], [2, 3, 7, 3]], [[3, 3, 5, 8], [3, 2, 3, 7], [1, 2, 1, 6]], [[3, 4, 10, 8], [1, 3, 9, 6], [1, 3, 8, 6]], [[3, 1, 3, 7], [2, 1, 2, 4], [2, 1, 2, 3]], [[3, 3, 3, 6], [1, 3, 3, 5], [1, 3, 1, 5]], [[4, 4, 8, 4], [4, 3, 6, 3], [4, 3, 2, 3]], [[4, 5, 2, 4], [4, 4, 2, 2], [4, 2, 2, 2]], [[4, 3, 7, 9], [3, 2, 3, 8], [1, 2, 2, 7]], [[4, 1, 10, 6], [3, 1, 9, 5], [3, 1, 8, 5]], [[3, 1, 5, 6], [3, 1, 4, 5], [2, 1, 4, 5]], [[4, 3, 7, 5], [3, 3, 6, 4], [2, 2, 4, 1]], [[3, 2, 10, 9], [1, 1, 9, 8], [1, 1, 8, 7]], [[4, 4, 6, 2], [4, 3, 6, 2], [3, 2, 4, 1]], [[1, 3, 9, 8], [1, 3, 5, 6], [1, 3, 2, 4]], [[5, 4, 7, 10], [3, 3, 6, 7], [1, 2, 5, 3]], [[3, 5, 5, 6], [2, 5, 5, 5], [2, 5, 4, 5]], [[5, 4, 9, 9], [4, 2, 5, 7], [3, 2, 4, 1]], [[4, 1, 10, 6], [3, 1, 10, 6], [3, 1, 10, 5]], [[1, 2, 2, 4], [1, 2, 1, 4], [1, 2, 1, 3]], [[2, 3, 9, 9], [2, 3, 8, 7], [2, 3, 8, 5]], [[4, 3, 4, 6], [4, 3, 3, 6], [4, 1, 3, 3]], [[4, 4, 5, 7], [4, 3, 4, 7], [4, 3, 4, 5]], [[1, 4, 7, 9], [1, 2, 5, 9], [1, 2, 3, 9]], [[4, 2, 7, 8], [4, 1, 4, 6], [4, 1, 1, 6]], [[1, 4, 3, 3], [1, 3, 3, 3], [1, 3, 3, 2]], [[1, 1, 8, 5], [1, 1, 6, 5], [1, 1, 2, 4]], [[3, 5, 9, 6], [3, 4, 7, 5], [2, 4, 7, 5]], [[3, 3, 3, 2], [2, 2, 2, 2], [2, 2, 2, 1]], [[3, 5, 9, 4], [2, 4, 9, 4], [2, 4, 9, 3]], [[4, 3, 6, 2], [2, 2, 4, 1], [2, 1, 4, 1]], [[4, 4, 4, 6], [4, 3, 4, 4], [4, 2, 3, 4]], [[4, 2, 7, 9], [4, 2, 7, 8], [3, 2, 7, 8]], [[2, 4, 10, 4], [2, 3, 10, 3], [2, 3, 10, 1]], [[3, 3, 5, 9], [2, 2, 3, 9], [1, 1, 3, 7]], [[1, 2, 4, 2], [1, 2, 3, 2], [1, 2, 3, 1]], [[4, 5, 3, 9], [4, 3, 3, 9], [4, 2, 2, 9]], [[4, 4, 8, 9], [3, 2, 8, 6], [3, 2, 8, 5]], [[5, 2, 5, 7], [5, 2, 4, 5], [5, 2, 3, 4]], [[4, 3, 6, 3], [3, 2, 3, 3], [3, 2, 2, 3]], [[3, 3, 5, 7], [3, 3, 4, 7], [3, 3, 3, 7]], [[1, 3, 5, 4], [1, 3, 5, 3], [1, 3, 5, 2]], [[3, 5, 5, 7], [2, 4, 4, 5], [2, 4, 3, 4]], [[3, 3, 4, 7], [1, 2, 3, 4], [1, 2, 3, 3]], [[4, 4, 9, 9], [3, 2, 8, 6], [2, 2, 8, 6]], [[2, 3, 5, 8], [1, 3, 5, 6], [1, 3, 3, 6]], [[4, 4, 6, 5], [3, 3, 6, 4], [3, 3, 2, 3]], [[5, 4, 8, 1], [3, 3, 4, 1], [2, 2, 4, 1]], [[1, 2, 4, 7], [1, 2, 4, 6], [1, 2, 2, 7]], [[5, 3, 10, 8], [4, 3, 9, 6], [4, 3, 9, 4]], [[0, 0, 0, 0]]]
